71
2 115 95 
2 68 56 
2 47 12 
2 70 25 
2 104 63 
2 101 94 
2 5 4 
2 87 1 
2 18 107 
2 75 27 
2 69 57 
2 31 61 
2 90 116 
1 17 
2 74 43 
2 78 8 
1 54 
2 72 38 
2 92 98 
2 44 42 
2 16 14 
2 71 3 
1 113 
2 49 19 
1 23 
1 79 
2 82 26 
1 45 
1 24 
2 80 32 
2 86 30 
2 6 93 
1 55 
3 108 36 109 
2 62 2 
2 83 40 
2 53 106 
2 97 81 
1 77 
1 66 
1 96 
1 112 
2 111 67 
1 29 
3 65 100 34 
2 84 50 
1 15 
3 118 76 120 
1 91 
1 119 
2 117 10 
1 9 
1 89 
2 85 41 
1 48 
1 52 
2 7 20 
1 21 
4 73 99 60 59 
1 51 
3 22 33 11 
1 103 
1 46 
1 110 
1 37 
3 39 35 58 
2 13 64 
1 102 
2 114 28 
1 88 
1 105 
